Academic license - for non-commercial use only - expires 2022-11-10
Using license file /home/benedond/Apps/gurobi/gurobi950/gurobi.lic
Using gurobi.env file
Set parameter Threads to value 1
Changed value of parameter TimeLimit to 300.0
   Prev: inf  Min: 0.0  Max: inf  Default: inf
Gurobi Optimizer version 9.1.2 build v9.1.2rc0 (linux64)
Thread count: 2 physical cores, 4 logical processors, using up to 1 threads
Optimize a model with 880 rows, 820 columns and 3258 nonzeros
Model fingerprint: 0x040c1518
Variable types: 20 continuous, 800 integer (800 binary)
Coefficient statistics:
  Matrix range     [1e+00, 2e+02]
  Objective range  [3e+01, 2e+02]
  Bounds range     [1e+00, 1e+00]
  RHS range        [1e+00, 6e+02]
Presolve removed 719 rows and 599 columns
Presolve time: 0.13s
Presolved: 161 rows, 221 columns, 1003 nonzeros
Variable types: 10 continuous, 211 integer (211 binary)
Found heuristic solution: objective 1688.0000000

Root relaxation: objective 1.922000e+03, 131 iterations, 0.00 seconds

    Nodes    |    Current Node    |     Objective Bounds      |     Work
 Expl Unexpl |  Obj  Depth IntInf | Incumbent    BestBd   Gap | It/Node Time

     0     0 1921.40989    0   36 1688.00000 1921.40989  13.8%     -    0s
H    0     0                    1829.0000000 1921.40989  5.05%     -    0s
H    0     0                    1841.0000000 1921.40989  4.37%     -    0s
     0     0 1917.00000    0   27 1841.00000 1917.00000  4.13%     -    0s
     0     0 1917.00000    0   26 1841.00000 1917.00000  4.13%     -    0s
     0     0 1916.71427    0   38 1841.00000 1916.71427  4.11%     -    0s
     0     0 1916.56180    0   40 1841.00000 1916.56180  4.10%     -    0s
     0     0 1916.52274    0   40 1841.00000 1916.52274  4.10%     -    0s
     0     0 1916.52274    0   40 1841.00000 1916.52274  4.10%     -    0s
     0     0 1916.19975    0   46 1841.00000 1916.19975  4.08%     -    0s
     0     0 1915.68339    0   42 1841.00000 1915.68339  4.06%     -    0s
     0     0 1915.27943    0   42 1841.00000 1915.27943  4.03%     -    0s
     0     0 1915.05891    0   41 1841.00000 1915.05891  4.02%     -    0s
     0     0 1914.72613    0   37 1841.00000 1914.72613  4.00%     -    0s
     0     0 1914.48506    0   41 1841.00000 1914.48506  3.99%     -    0s
     0     0 1914.43160    0   47 1841.00000 1914.43160  3.99%     -    0s
     0     0 1914.40688    0   46 1841.00000 1914.40688  3.99%     -    0s
     0     0 1914.39332    0   47 1841.00000 1914.39332  3.99%     -    0s
     0     0 1914.18587    0   47 1841.00000 1914.18587  3.98%     -    0s
     0     0 1914.15543    0   47 1841.00000 1914.15543  3.97%     -    0s
     0     0 1914.15177    0   47 1841.00000 1914.15177  3.97%     -    0s
     0     0 1914.02892    0   50 1841.00000 1914.02892  3.97%     -    0s
H    0     0                    1878.0000000 1914.02892  1.92%     -    0s
     0     0 1913.74779    0   49 1878.00000 1913.74779  1.90%     -    0s
     0     0 1913.71880    0   50 1878.00000 1913.71880  1.90%     -    0s
     0     0 1913.71574    0   50 1878.00000 1913.71574  1.90%     -    0s
     0     0 1913.66095    0   49 1878.00000 1913.66095  1.90%     -    0s
     0     0 1913.63758    0   51 1878.00000 1913.63758  1.90%     -    0s
     0     0 1913.63410    0   51 1878.00000 1913.63410  1.90%     -    0s
     0     0 1913.63402    0   51 1878.00000 1913.63402  1.90%     -    0s
     0     0 1913.62600    0   52 1878.00000 1913.62600  1.90%     -    0s
     0     0 1913.62600    0   52 1878.00000 1913.62600  1.90%     -    0s
     0     0 1913.60897    0   50 1878.00000 1913.60897  1.90%     -    0s
     0     0 1913.60414    0   53 1878.00000 1913.60414  1.90%     -    0s
     0     0 1913.59000    0   54 1878.00000 1913.59000  1.90%     -    0s
     0     0 1913.58826    0   54 1878.00000 1913.58826  1.90%     -    0s
     0     0 1913.54656    0   49 1878.00000 1913.54656  1.89%     -    0s
     0     0 1913.54307    0   52 1878.00000 1913.54307  1.89%     -    0s
     0     0 1913.54277    0   53 1878.00000 1913.54277  1.89%     -    0s
     0     0 1913.54148    0   48 1878.00000 1913.54148  1.89%     -    0s
     0     0 1909.33333    0   42 1878.00000 1909.33333  1.67%     -    0s
     0     0 1909.33333    0   40 1878.00000 1909.33333  1.67%     -    0s
     0     0 1909.33333    0   43 1878.00000 1909.33333  1.67%     -    0s
     0     0 1909.33333    0   42 1878.00000 1909.33333  1.67%     -    0s
     0     0 1909.33333    0   44 1878.00000 1909.33333  1.67%     -    0s
     0     0 1909.33333    0   43 1878.00000 1909.33333  1.67%     -    0s
     0     0 1909.33333    0   47 1878.00000 1909.33333  1.67%     -    0s
     0     0 1909.33333    0   47 1878.00000 1909.33333  1.67%     -    0s
     0     0 1908.81233    0   47 1878.00000 1908.81233  1.64%     -    0s
     0     0 1908.54397    0   48 1878.00000 1908.54397  1.63%     -    0s
     0     0 1908.45700    0   48 1878.00000 1908.45700  1.62%     -    0s
     0     0 1908.44794    0   49 1878.00000 1908.44794  1.62%     -    0s
     0     0 1908.06810    0   47 1878.00000 1908.06810  1.60%     -    0s
     0     0 1907.93901    0   47 1878.00000 1907.93901  1.59%     -    0s
     0     0 1907.93632    0   48 1878.00000 1907.93632  1.59%     -    0s
     0     0 1907.89765    0   47 1878.00000 1907.89765  1.59%     -    0s
     0     0 1907.89765    0   45 1878.00000 1907.89765  1.59%     -    0s
     0     2 1907.10718    0   45 1878.00000 1907.10718  1.55%     -    0s
H   58    24                    1879.0000000 1902.00000  1.22%  12.0    0s
*   79    29              13    1883.0000000 1902.00000  1.01%  12.4    0s
*  319     0               9    1886.0000000 1886.00000  0.00%  13.2    0s

Cutting planes:
  Cover: 28
  Implied bound: 12
  Clique: 2
  MIR: 74
  GUB cover: 1
  Inf proof: 2
  RLT: 5
  Relax-and-lift: 19

Explored 320 nodes (5623 simplex iterations) in 0.48 seconds
Thread count was 1 (of 4 available processors)

Solution count 7: 1886 1883 1879 ... 1688

Optimal solution found (tolerance 1.00e-04)
Best objective 1.886000000000e+03, best bound 1.886000000000e+03, gap 0.0000%
